# 1 amount of Vehicles
param nv :=
6 ;

# 2 amount of Orders
param no :=
10 ;

# 3 amount of locations
param nl :=
7 ;

# 4 amount of factories
param nf :=
3 ;

# 5 factory sets
set N_f_2[1] :=  4 ;
set N_f_2[2] :=  5 ;
set N_f_2[3] :=  6 7 ;

# 6 factory stop capacities
param H :=
1 1
2 1
3 2 ;

# 7 pickup locations for each order
param L_pd :=
1 3
2 2
3 1
4 3
5 2
6 1
7 1
8 3
9 2
10 3 ;

# 8 delivery locations for each order
param L_dd :=
1 6
2 4
3 5
4 7
5 7
6 5
7 5
8 5
9 5
10 5 ;

# 9 location sets
set L_2[1] :=  3 6 7 ;
set L_2[2] :=  2 5 9 ;
set L_2[3] :=  1 4 8 10 ;
set L_2[4] :=  2 ;
set L_2[5] :=  3 6 7 8 9 10 ;
set L_2[6] :=  1 ;
set L_2[7] :=  4 5 ;

# 10 order weights
param Q_kg_2 :=
1 1261.2531776686442
2 516.0755649755474
3 3200.8962609636137
4 851.0916919198739
5 1351.005252701997
6 1284.3169965229943
7 1746.9171565571817
8 735.4894068167183
9 638.0691696737515
10 8333.274292357655 ;

# 11 order volumes
param Q_vol_2 :=
1 13.609161470205436
2 2.0295105128622724
3 21.155642540249328
4 14.460149798657538
5 16.38655605824647
6 3.349565295660823
7 20.032969179479256
8 1.749021127402474
9 1.5784179236889102
10 79.97120989628567 ;

# 12 Locations vehicle can visit
set N_v_2[1] := 1 2 3 4 5 6 7 ;
set N_v_2[2] := 1 2 3 4 5 6 7 ;
set N_v_2[3] := 1 2 3 4 5 6 7 ;
set N_v_2[4] := 1 2 3 4 5 6 7 ;
set N_v_2[5] := 1 2 3 4 5 6 7 ;
set N_v_2[6] := 1 2 3 4 5 6 7 ;

# 13 Orders vehicles can pick up
set N_vp_2[1] := 1 2 3 4 5 6 7 8 9 ;
set N_vp_2[2] := 1 2 3 4 5 6 7 8 9 ;
set N_vp_2[3] := 1 2 3 4 5 6 7 8 9 ;
set N_vp_2[4] := 1 2 3 4 5 6 7 8 9 ;
set N_vp_2[5] := 1 2 3 4 5 6 7 8 9 10 ;
set N_vp_2[6] := 1 2 3 4 5 6 7 8 9 10 ;

# 14 vehicle weight capacity
param K_kg :=
1 12000.0
2 12000.0
3 18000.0
4 18000.0
5 24000.0
6 24000.0 ;

# 15 vehicle volume capacity
param K_vol :=
1 55.0
2 55.0
3 71.0
4 71.0
5 102.0
6 102.0 ;

# 16 amount of distance intervals
param na :=
1 2
2 2
3 2
4 2
5 2
6 2 ;

# 17 amount of weight intervals
param nb :=
1 2
2 2
3 2
4 2
5 3
6 3 ;

# 18 Distance intervals
param B_2 :=
1 1 1500.0
1 2 9999999.0
2 1 1500.0
2 2 9999999.0
3 1 1500.0
3 2 9999999.0
4 1 1500.0
4 2 9999999.0
5 1 1500.0
5 2 9999999.0
6 1 1500.0
6 2 9999999.0 ;

# 19 Weight intervals
param Z_2 :=
1 1 1500.0
1 2 24000.0
1 3 . 
2 1 1500.0
2 2 24000.0
2 3 . 
3 1 1500.0
3 2 24000.0
3 3 . 
4 1 1500.0
4 2 24000.0
4 3 . 
5 1 700.0
5 2 3000.0
5 3 24000.0
6 1 700.0
6 2 3000.0
6 3 24000.0 ;

# 20 cost per kilometer
param C_km :=
1 1 1 0.11574494469165798
1 1 2 0.3723393221028571
1 1 3 . 
1 2 1 0.07716329646110535
1 2 2 0.2482262147352381
1 2 3 . 
2 1 1 0.11574494469165798
2 1 2 0.3723393221028571
2 1 3 . 
2 2 1 0.07716329646110535
2 2 2 0.2482262147352381
2 2 3 . 
3 1 1 0.13503576880693438
3 1 2 0.43439587578666683
3 1 3 . 
3 2 1 0.08487962610721587
3 2 2 0.2730488362087619
3 2 3 . 
4 1 1 0.13503576880693438
4 1 2 0.43439587578666683
4 1 3 . 
4 2 1 0.08487962610721587
4 2 2 0.2730488362087619
4 2 3 . 
5 1 1 0.10997314453125002
5 1 2 0.20935711350105707
5 1 3 0.4964524294704762
5 2 1 0.06873321533203125
5 2 2 0.13084819593816063
5 2 3 0.3102827684190475
6 1 1 0.10997314453125002
6 1 2 0.20935711350105707
6 1 3 0.4964524294704762
6 2 1 0.06873321533203125
6 2 2 0.13084819593816063
6 2 3 0.3102827684190475 ;

# 21 cost per kilo
param C_kg :=
1 1 1 0.004564315080642704
1 1 2 8.114541859150757E-4
1 1 3 . 
1 2 1 0.0018257260322570804
1 2 2 3.245816743660299E-4
1 2 3 . 
2 1 1 0.004564315080642704
2 1 2 8.114541859150757E-4
2 1 3 . 
2 2 1 0.0018257260322570804
2 2 2 3.245816743660299E-4
2 2 3 . 
3 1 1 0.004564315080642704
3 1 2 8.114541859150757E-4
3 1 3 . 
3 2 1 0.0018257260322570804
3 2 2 3.245816743660299E-4
3 2 3 . 
4 1 1 0.004564315080642704
4 1 2 8.114541859150757E-4
4 1 3 . 
4 2 1 0.0018257260322570804
4 2 2 3.245816743660299E-4
4 2 3 . 
5 1 1 0.0070495605468750035
5 1 2 0.0030595174524933127
5 1 3 8.114541859150757E-4
5 2 1 0.0028198242187500006
5 2 2 0.0012238069809973242
5 2 3 3.245816743660299E-4
6 1 1 0.0070495605468750035
6 1 2 0.0030595174524933127
6 1 3 8.114541859150757E-4
6 2 1 0.0028198242187500006
6 2 2 0.0012238069809973242
6 2 3 3.245816743660299E-4 ;

# 22 fixed costs
param C_fix :=
1 1 1 136.6875
1 1 2 764.94375
1 1 3 . 
1 2 1 1037.970703125
1 2 2 5808.7916015625
1 2 3 . 
2 1 1 136.6875
2 1 2 764.94375
2 1 3 . 
2 2 1 1037.970703125
2 2 2 5808.7916015625
2 2 3 . 
3 1 1 159.90504192000003
3 1 2 894.8759938560002
3 1 3 . 
3 2 1 1477.3559627052468
3 2 2 8267.721702398621
3 2 3 . 
4 1 1 159.90504192000003
4 1 2 894.8759938560002
4 1 3 . 
4 2 1 1477.3559627052468
4 2 2 8267.721702398621
4 2 3 . 
5 1 1 122.97711871999996
5 1 2 289.35792639999994
5 1 3 1093.0495669759996
5 2 1 1458.9605667660978
5 2 2 3432.848392390819
5 2 3 12967.584802256317
6 1 1 122.97711871999996
6 1 2 289.35792639999994
6 1 3 1093.0495669759996
6 2 1 1458.9605667660978
6 2 2 3432.848392390819
6 2 3 12967.584802256317 ;

# 23 stopping costs
param C_stop_2 :=
1 1 29.0
1 2 22.0
1 3 29.0
1 4 30.0
1 5 27.0
1 6 28.0
1 7 23.0
2 1 29.0
2 2 22.0
2 3 29.0
2 4 30.0
2 5 27.0
2 6 28.0
2 7 23.0
3 1 43.5
3 2 33.0
3 3 43.5
3 4 45.0
3 5 40.5
3 6 42.0
3 7 34.5
4 1 43.5
4 2 33.0
4 3 43.5
4 4 45.0
4 5 40.5
4 6 42.0
4 7 34.5
5 1 58.0
5 2 44.0
5 3 58.0
5 4 60.0
5 5 54.0
5 6 56.0
5 7 46.0
6 1 58.0
6 2 44.0
6 3 58.0
6 4 60.0
6 5 54.0
6 6 56.0
6 7 46.0 ;

# 24 cost of no transport
param C_2 :=
1 52840.892594245
2 39538.172867804664
3 73298.76922853546
4 49644.97112232598
5 57258.35430214637
6 36326.89933954076
7 57636.304823701066
8 37948.62547912333
9 39133.05252344862
10 192148.6631034159 ;

# 25 timewindow amounts at location
param pi_2 :=
1 4
2 4
3 3
4 4
5 4
6 3
7 4 ;

# 26 timewindow lower bounds
param T_l_2 :=
1 1 120.0
1 2 540.0
1 3 1560.0
1 4 1980.0
2 1 0.0
2 2 420.0
2 3 1440.0
2 4 1860.0
3 1 60.0
3 2 1500.0
3 3 2940.0
3 4 . 
4 1 120.0
4 2 1560.0
4 3 3000.0
4 4 4440.0
5 1 60.0
5 2 360.0
5 3 1500.0
5 4 1740.0
6 1 120.0
6 2 420.0
6 3 1560.0
6 4 . 
7 1 0.0
7 2 240.0
7 3 1440.0
7 4 1740.0 ;

# 27 timewindow upper bounds
param T_u_2 :=
1 1 420.0
1 2 780.0
1 3 1860.0
1 4 2220.0
2 1 300.0
2 2 600.0
2 3 1740.0
2 4 2040.0
3 1 300.0
3 2 1680.0
3 3 3120.0
3 4 . 
4 1 300.0
4 2 1860.0
4 3 3300.0
4 4 4740.0
5 1 240.0
5 2 660.0
5 3 1680.0
5 4 2040.0
6 1 360.0
6 2 720.0
6 3 1800.0
6 4 . 
7 1 180.0
7 2 480.0
7 3 1620.0
7 4 1980.0 ;

# 28 Travel time
param T_2 :=
1 1 1 . 
1 1 2 253.07742936058185
1 1 3 146.19383595731603
1 1 4 68.89341332667658
1 1 5 2.23606797749979
1 1 6 290.8330851326496
1 1 7 249.82048394218887
1 2 1 253.07742936058185
1 2 2 . 
1 2 3 46.41200281863816
1 2 4 216.79844508644857
1 2 5 241.2323817170365
1 2 6 136.00102458586156
1 2 7 127.69576194799885
1 3 1 146.19383595731603
1 3 2 46.41200281863816
1 3 3 . 
1 3 4 222.80003090234564
1 3 5 169.41183805922776
1 3 6 117.31998912255204
1 3 7 111.23174007449492
1 4 1 68.89341332667658
1 4 2 216.79844508644857
1 4 3 222.80003090234564
1 4 4 . 
1 4 5 53.911965276736105
1 4 6 262.62117789258355
1 4 7 267.54175929503776
1 5 1 2.23606797749979
1 5 2 241.2323817170365
1 5 3 169.41183805922776
1 5 4 53.911965276736105
1 5 5 . 
1 5 6 241.96736490033246
1 5 7 228.9542905520845
1 6 1 290.8330851326496
1 6 2 136.00102458586156
1 6 3 117.31998912255204
1 6 4 262.62117789258355
1 6 5 241.96736490033246
1 6 6 . 
1 6 7 1.0
1 7 1 249.82048394218887
1 7 2 127.69576194799885
1 7 3 111.23174007449492
1 7 4 267.54175929503776
1 7 5 228.9542905520845
1 7 6 1.0
1 7 7 . 
2 1 1 . 
2 1 2 253.07742936058185
2 1 3 146.19383595731603
2 1 4 68.89341332667658
2 1 5 2.23606797749979
2 1 6 290.8330851326496
2 1 7 249.82048394218887
2 2 1 253.07742936058185
2 2 2 . 
2 2 3 46.41200281863816
2 2 4 216.79844508644857
2 2 5 241.2323817170365
2 2 6 136.00102458586156
2 2 7 127.69576194799885
2 3 1 146.19383595731603
2 3 2 46.41200281863816
2 3 3 . 
2 3 4 222.80003090234564
2 3 5 169.41183805922776
2 3 6 117.31998912255204
2 3 7 111.23174007449492
2 4 1 68.89341332667658
2 4 2 216.79844508644857
2 4 3 222.80003090234564
2 4 4 . 
2 4 5 53.911965276736105
2 4 6 262.62117789258355
2 4 7 267.54175929503776
2 5 1 2.23606797749979
2 5 2 241.2323817170365
2 5 3 169.41183805922776
2 5 4 53.911965276736105
2 5 5 . 
2 5 6 241.96736490033246
2 5 7 228.9542905520845
2 6 1 290.8330851326496
2 6 2 136.00102458586156
2 6 3 117.31998912255204
2 6 4 262.62117789258355
2 6 5 241.96736490033246
2 6 6 . 
2 6 7 1.0
2 7 1 249.82048394218887
2 7 2 127.69576194799885
2 7 3 111.23174007449492
2 7 4 267.54175929503776
2 7 5 228.9542905520845
2 7 6 1.0
2 7 7 . 
3 1 1 . 
3 1 2 259.40436509459636
3 1 3 149.8486818562489
3 1 4 70.61574865984349
3 1 5 2.2919696769372844
3 1 6 298.10391226096584
3 1 7 256.0659960407436
3 2 1 259.40436509459636
3 2 2 . 
3 2 3 47.57230288910411
3 2 4 222.21840621360977
3 2 5 247.26319125996238
3 2 6 139.40105020050808
3 2 7 130.8881559966988
3 3 1 149.8486818562489
3 3 2 47.57230288910411
3 3 3 . 
3 3 4 228.37003167490425
3 3 5 173.64713401070844
3 3 6 120.25298885061584
3 3 7 114.01253357635728
3 4 1 70.61574865984349
3 4 2 222.21840621360977
3 4 3 228.37003167490425
3 4 4 . 
3 4 5 55.259764408654505
3 4 6 269.18670733989813
3 4 7 274.23030327741367
3 5 1 2.2919696769372844
3 5 2 247.26319125996238
3 5 3 173.64713401070844
3 5 4 55.259764408654505
3 5 5 . 
3 5 6 248.01654902284074
3 5 7 234.6781478158866
3 6 1 298.10391226096584
3 6 2 139.40105020050808
3 6 3 120.25298885061584
3 6 4 269.18670733989813
3 6 5 248.01654902284074
3 6 6 . 
3 6 7 1.025
3 7 1 256.0659960407436
3 7 2 130.8881559966988
3 7 3 114.01253357635728
3 7 4 274.23030327741367
3 7 5 234.6781478158866
3 7 6 1.025
3 7 7 . 
4 1 1 . 
4 1 2 259.40436509459636
4 1 3 149.8486818562489
4 1 4 70.61574865984349
4 1 5 2.2919696769372844
4 1 6 298.10391226096584
4 1 7 256.0659960407436
4 2 1 259.40436509459636
4 2 2 . 
4 2 3 47.57230288910411
4 2 4 222.21840621360977
4 2 5 247.26319125996238
4 2 6 139.40105020050808
4 2 7 130.8881559966988
4 3 1 149.8486818562489
4 3 2 47.57230288910411
4 3 3 . 
4 3 4 228.37003167490425
4 3 5 173.64713401070844
4 3 6 120.25298885061584
4 3 7 114.01253357635728
4 4 1 70.61574865984349
4 4 2 222.21840621360977
4 4 3 228.37003167490425
4 4 4 . 
4 4 5 55.259764408654505
4 4 6 269.18670733989813
4 4 7 274.23030327741367
4 5 1 2.2919696769372844
4 5 2 247.26319125996238
4 5 3 173.64713401070844
4 5 4 55.259764408654505
4 5 5 . 
4 5 6 248.01654902284074
4 5 7 234.6781478158866
4 6 1 298.10391226096584
4 6 2 139.40105020050808
4 6 3 120.25298885061584
4 6 4 269.18670733989813
4 6 5 248.01654902284074
4 6 6 . 
4 6 7 1.025
4 7 1 256.0659960407436
4 7 2 130.8881559966988
4 7 3 114.01253357635728
4 7 4 274.23030327741367
4 7 5 234.6781478158866
4 7 6 1.025
4 7 7 . 
5 1 1 . 
5 1 2 265.7313008286109
5 1 3 153.50352775518184
5 1 4 72.33808399301041
5 1 5 2.3478713763747794
5 1 6 305.3747393892821
5 1 7 262.3115081392983
5 2 1 265.7313008286109
5 2 2 . 
5 2 3 48.732602959570066
5 2 4 227.638367340771
5 2 5 253.29400080288835
5 2 6 142.80107581515463
5 2 7 134.08055004539878
5 3 1 153.50352775518184
5 3 2 48.732602959570066
5 3 3 . 
5 3 4 233.94003244746293
5 3 5 177.88242996218915
5 3 6 123.18598857867966
5 3 7 116.79332707821968
5 4 1 72.33808399301041
5 4 2 227.638367340771
5 4 3 233.94003244746293
5 4 4 . 
5 4 5 56.60756354057291
5 4 6 275.7522367872127
5 4 7 280.9188472597897
5 5 1 2.3478713763747794
5 5 2 253.29400080288835
5 5 3 177.88242996218915
5 5 4 56.60756354057291
5 5 5 . 
5 5 6 254.0657331453491
5 5 7 240.40200507968873
5 6 1 305.3747393892821
5 6 2 142.80107581515463
5 6 3 123.18598857867966
5 6 4 275.7522367872127
5 6 5 254.0657331453491
5 6 6 . 
5 6 7 1.05
5 7 1 262.3115081392983
5 7 2 134.08055004539878
5 7 3 116.79332707821968
5 7 4 280.9188472597897
5 7 5 240.40200507968873
5 7 6 1.05
5 7 7 . 
6 1 1 . 
6 1 2 265.7313008286109
6 1 3 153.50352775518184
6 1 4 72.33808399301041
6 1 5 2.3478713763747794
6 1 6 305.3747393892821
6 1 7 262.3115081392983
6 2 1 265.7313008286109
6 2 2 . 
6 2 3 48.732602959570066
6 2 4 227.638367340771
6 2 5 253.29400080288835
6 2 6 142.80107581515463
6 2 7 134.08055004539878
6 3 1 153.50352775518184
6 3 2 48.732602959570066
6 3 3 . 
6 3 4 233.94003244746293
6 3 5 177.88242996218915
6 3 6 123.18598857867966
6 3 7 116.79332707821968
6 4 1 72.33808399301041
6 4 2 227.638367340771
6 4 3 233.94003244746293
6 4 4 . 
6 4 5 56.60756354057291
6 4 6 275.7522367872127
6 4 7 280.9188472597897
6 5 1 2.3478713763747794
6 5 2 253.29400080288835
6 5 3 177.88242996218915
6 5 4 56.60756354057291
6 5 5 . 
6 5 6 254.0657331453491
6 5 7 240.40200507968873
6 6 1 305.3747393892821
6 6 2 142.80107581515463
6 6 3 123.18598857867966
6 6 4 275.7522367872127
6 6 5 254.0657331453491
6 6 6 . 
6 6 7 1.05
6 7 1 262.3115081392983
6 7 2 134.08055004539878
6 7 3 116.79332707821968
6 7 4 280.9188472597897
6 7 5 240.40200507968873
6 7 6 1.05
6 7 7 . ;

# 29 Travel distance
param D_2 :=
1 1 . 
1 2 368.1548587211637
1 3 290.38767191463205
1 4 107.78682665335315
1 5 4.47213595499958
1 6 447.66617026529934
1 7 449.64096788437774
2 1 368.1548587211637
2 2 . 
2 3 90.82400563727631
2 4 411.5968901728972
2 5 372.46476343407306
2 6 244.00204917172314
2 7 245.3915238959977
3 1 290.38767191463205
3 2 90.82400563727631
3 3 . 
3 4 323.6000618046913
3 5 294.8236761184556
3 6 220.6399782451041
3 7 222.46348014898985
4 1 107.78682665335315
4 2 411.5968901728972
4 3 323.6000618046913
4 4 . 
4 5 107.82393055347222
4 6 429.24235578516715
4 7 431.0835185900755
5 1 4.47213595499958
5 2 372.46476343407306
5 3 294.8236761184556
5 4 107.82393055347222
5 5 . 
5 6 451.9347298006649
5 7 453.90858110416906
6 1 447.66617026529934
6 2 244.00204917172314
6 3 220.6399782451041
6 4 429.24235578516715
6 5 451.9347298006649
6 6 . 
6 7 2.0
7 1 449.64096788437774
7 2 245.3915238959977
7 3 222.46348014898985
7 4 431.0835185900755
7 5 453.90858110416906
7 6 2.0
7 7 . ;

